c File: flat50_3_0.col
c
c SOURCE: Joseph Culberson (joe@cs.ualberta.ca)
c DESCRIPTION: Quasi-random coloring problem
c              generated with flatness = 0
c                             probability = 0.139
c                             known coloring = 3
c                             random seed = 1877
c              Creation Date:  Tue Jun  9 12:20:07 1998
c Maximum degree = 8 Minimum degree = 1
c p edge 50 115
c cnf created by edge2cnf
p cnf 150 545
-1 -2 0
-1 -3 0
-2 -3 0
1 2 3 0
-4 -5 0
-4 -6 0
-5 -6 0
4 5 6 0
-7 -8 0
-7 -9 0
-8 -9 0
7 8 9 0
-10 -11 0
-10 -12 0
-11 -12 0
10 11 12 0
-13 -14 0
-13 -15 0
-14 -15 0
13 14 15 0
-16 -17 0
-16 -18 0
-17 -18 0
16 17 18 0
-19 -20 0
-19 -21 0
-20 -21 0
19 20 21 0
-22 -23 0
-22 -24 0
-23 -24 0
22 23 24 0
-25 -26 0
-25 -27 0
-26 -27 0
25 26 27 0
-28 -29 0
-28 -30 0
-29 -30 0
28 29 30 0
-31 -32 0
-31 -33 0
-32 -33 0
31 32 33 0
-34 -35 0
-34 -36 0
-35 -36 0
34 35 36 0
-37 -38 0
-37 -39 0
-38 -39 0
37 38 39 0
-40 -41 0
-40 -42 0
-41 -42 0
40 41 42 0
-43 -44 0
-43 -45 0
-44 -45 0
43 44 45 0
-46 -47 0
-46 -48 0
-47 -48 0
46 47 48 0
-49 -50 0
-49 -51 0
-50 -51 0
49 50 51 0
-52 -53 0
-52 -54 0
-53 -54 0
52 53 54 0
-55 -56 0
-55 -57 0
-56 -57 0
55 56 57 0
-58 -59 0
-58 -60 0
-59 -60 0
58 59 60 0
-61 -62 0
-61 -63 0
-62 -63 0
61 62 63 0
-64 -65 0
-64 -66 0
-65 -66 0
64 65 66 0
-67 -68 0
-67 -69 0
-68 -69 0
67 68 69 0
-70 -71 0
-70 -72 0
-71 -72 0
70 71 72 0
-73 -74 0
-73 -75 0
-74 -75 0
73 74 75 0
-76 -77 0
-76 -78 0
-77 -78 0
76 77 78 0
-79 -80 0
-79 -81 0
-80 -81 0
79 80 81 0
-82 -83 0
-82 -84 0
-83 -84 0
82 83 84 0
-85 -86 0
-85 -87 0
-86 -87 0
85 86 87 0
-88 -89 0
-88 -90 0
-89 -90 0
88 89 90 0
-91 -92 0
-91 -93 0
-92 -93 0
91 92 93 0
-94 -95 0
-94 -96 0
-95 -96 0
94 95 96 0
-97 -98 0
-97 -99 0
-98 -99 0
97 98 99 0
-100 -101 0
-100 -102 0
-101 -102 0
100 101 102 0
-103 -104 0
-103 -105 0
-104 -105 0
103 104 105 0
-106 -107 0
-106 -108 0
-107 -108 0
106 107 108 0
-109 -110 0
-109 -111 0
-110 -111 0
109 110 111 0
-112 -113 0
-112 -114 0
-113 -114 0
112 113 114 0
-115 -116 0
-115 -117 0
-116 -117 0
115 116 117 0
-118 -119 0
-118 -120 0
-119 -120 0
118 119 120 0
-121 -122 0
-121 -123 0
-122 -123 0
121 122 123 0
-124 -125 0
-124 -126 0
-125 -126 0
124 125 126 0
-127 -128 0
-127 -129 0
-128 -129 0
127 128 129 0
-130 -131 0
-130 -132 0
-131 -132 0
130 131 132 0
-133 -134 0
-133 -135 0
-134 -135 0
133 134 135 0
-136 -137 0
-136 -138 0
-137 -138 0
136 137 138 0
-139 -140 0
-139 -141 0
-140 -141 0
139 140 141 0
-142 -143 0
-142 -144 0
-143 -144 0
142 143 144 0
-145 -146 0
-145 -147 0
-146 -147 0
145 146 147 0
-148 -149 0
-148 -150 0
-149 -150 0
148 149 150 0
-70 -1 0
-71 -2 0
-72 -3 0
-73 -1 0
-74 -2 0
-75 -3 0
-82 -1 0
-83 -2 0
-84 -3 0
-100 -1 0
-101 -2 0
-102 -3 0
-64 -4 0
-65 -5 0
-66 -6 0
-124 -4 0
-125 -5 0
-126 -6 0
-58 -7 0
-59 -8 0
-60 -9 0
-64 -7 0
-65 -8 0
-66 -9 0
-79 -7 0
-80 -8 0
-81 -9 0
-85 -7 0
-86 -8 0
-87 -9 0
-106 -7 0
-107 -8 0
-108 -9 0
-109 -7 0
-110 -8 0
-111 -9 0
-127 -7 0
-128 -8 0
-129 -9 0
-136 -7 0
-137 -8 0
-138 -9 0
-76 -10 0
-77 -11 0
-78 -12 0
-82 -10 0
-83 -11 0
-84 -12 0
-94 -10 0
-95 -11 0
-96 -12 0
-97 -10 0
-98 -11 0
-99 -12 0
-115 -10 0
-116 -11 0
-117 -12 0
-124 -10 0
-125 -11 0
-126 -12 0
-133 -10 0
-134 -11 0
-135 -12 0
-76 -13 0
-77 -14 0
-78 -15 0
-121 -13 0
-122 -14 0
-123 -15 0
-61 -16 0
-62 -17 0
-63 -18 0
-139 -16 0
-140 -17 0
-141 -18 0
-148 -16 0
-149 -17 0
-150 -18 0
-106 -19 0
-107 -20 0
-108 -21 0
-85 -22 0
-86 -23 0
-87 -24 0
-91 -22 0
-92 -23 0
-93 -24 0
-100 -22 0
-101 -23 0
-102 -24 0
-115 -22 0
-116 -23 0
-117 -24 0
-142 -22 0
-143 -23 0
-144 -24 0
-76 -25 0
-77 -26 0
-78 -27 0
-88 -25 0
-89 -26 0
-90 -27 0
-112 -25 0
-113 -26 0
-114 -27 0
-130 -25 0
-131 -26 0
-132 -27 0
-133 -25 0
-134 -26 0
-135 -27 0
-91 -28 0
-92 -29 0
-93 -30 0
-118 -28 0
-119 -29 0
-120 -30 0
-124 -28 0
-125 -29 0
-126 -30 0
-73 -31 0
-74 -32 0
-75 -33 0
-91 -31 0
-92 -32 0
-93 -33 0
-106 -31 0
-107 -32 0
-108 -33 0
-109 -31 0
-110 -32 0
-111 -33 0
-127 -31 0
-128 -32 0
-129 -33 0
-133 -31 0
-134 -32 0
-135 -33 0
-58 -34 0
-59 -35 0
-60 -36 0
-73 -34 0
-74 -35 0
-75 -36 0
-142 -34 0
-143 -35 0
-144 -36 0
-109 -37 0
-110 -38 0
-111 -39 0
-139 -37 0
-140 -38 0
-141 -39 0
-52 -40 0
-53 -41 0
-54 -42 0
-79 -40 0
-80 -41 0
-81 -42 0
-82 -40 0
-83 -41 0
-84 -42 0
-88 -40 0
-89 -41 0
-90 -42 0
-142 -40 0
-143 -41 0
-144 -42 0
-64 -43 0
-65 -44 0
-66 -45 0
-82 -43 0
-83 -44 0
-84 -45 0
-97 -43 0
-98 -44 0
-99 -45 0
-109 -43 0
-110 -44 0
-111 -45 0
-124 -43 0
-125 -44 0
-126 -45 0
-136 -43 0
-137 -44 0
-138 -45 0
-61 -46 0
-62 -47 0
-63 -48 0
-73 -46 0
-74 -47 0
-75 -48 0
-91 -46 0
-92 -47 0
-93 -48 0
-100 -46 0
-101 -47 0
-102 -48 0
-103 -46 0
-104 -47 0
-105 -48 0
-121 -46 0
-122 -47 0
-123 -48 0
-139 -46 0
-140 -47 0
-141 -48 0
-52 -49 0
-53 -50 0
-54 -51 0
-67 -49 0
-68 -50 0
-69 -51 0
-85 -49 0
-86 -50 0
-87 -51 0
-94 -49 0
-95 -50 0
-96 -51 0
-106 -49 0
-107 -50 0
-108 -51 0
-118 -49 0
-119 -50 0
-120 -51 0
-121 -49 0
-122 -50 0
-123 -51 0
-139 -49 0
-140 -50 0
-141 -51 0
-121 -55 0
-122 -56 0
-123 -57 0
-103 -58 0
-104 -59 0
-105 -60 0
-121 -58 0
-122 -59 0
-123 -60 0
-136 -61 0
-137 -62 0
-138 -63 0
-106 -64 0
-107 -65 0
-108 -66 0
-139 -64 0
-140 -65 0
-141 -66 0
-145 -64 0
-146 -65 0
-147 -66 0
-109 -67 0
-110 -68 0
-111 -69 0
-112 -67 0
-113 -68 0
-114 -69 0
-133 -67 0
-134 -68 0
-135 -69 0
-121 -70 0
-122 -71 0
-123 -72 0
-145 -70 0
-146 -71 0
-147 -72 0
-109 -73 0
-110 -74 0
-111 -75 0
-112 -73 0
-113 -74 0
-114 -75 0
-130 -73 0
-131 -74 0
-132 -75 0
-136 -73 0
-137 -74 0
-138 -75 0
-112 -76 0
-113 -77 0
-114 -78 0
-124 -76 0
-125 -77 0
-126 -78 0
-145 -76 0
-146 -77 0
-147 -78 0
-121 -79 0
-122 -80 0
-123 -81 0
-142 -79 0
-143 -80 0
-144 -81 0
-139 -82 0
-140 -83 0
-141 -84 0
-109 -85 0
-110 -86 0
-111 -87 0
-130 -85 0
-131 -86 0
-132 -87 0
-106 -88 0
-107 -89 0
-108 -90 0
-109 -88 0
-110 -89 0
-111 -90 0
-124 -88 0
-125 -89 0
-126 -90 0
-133 -88 0
-134 -89 0
-135 -90 0
-142 -91 0
-143 -92 0
-144 -93 0
-118 -94 0
-119 -95 0
-120 -96 0
-136 -94 0
-137 -95 0
-138 -96 0
-142 -94 0
-143 -95 0
-144 -96 0
-127 -97 0
-128 -98 0
-129 -99 0
-130 -97 0
-131 -98 0
-132 -99 0
-139 -97 0
-140 -98 0
-141 -99 0
-103 -100 0
-104 -101 0
-105 -102 0
-136 -100 0
-137 -101 0
-138 -102 0
-148 -100 0
-149 -101 0
-150 -102 0
